(set-logic ALL)
(declare-fun var0 () String)
(assert (str.in_re var0 (re.++ (re.union (re.union (str.to_re "00") (str.to_re "11")) (re.union (str.to_re "22") (str.to_re "333"))) (re.++ (re.+ (re.union (str.to_re "4") (str.to_re "55"))) (re.++ (re.+ (re.+ (str.to_re "66"))) (re.++ (re.* (re.+ (str.to_re "7"))) (re.++ (re.union (re.* (str.to_re "888")) (re.* (str.to_re "9"))) (re.++ (re.+ (re.+ (str.to_re "a"))) (re.++ (re.union (re.+ (str.to_re "b")) (re.+ (str.to_re "c"))) (re.++ (re.union (re.union (str.to_re "ddd") (str.to_re "e")) (re.union (str.to_re "fff") (str.to_re "gg"))) (re.++ (re.* (re.* (str.to_re "hhh"))) (re.* (re.+ (str.to_re "iii"))))))))))))))
(check-sat)